c This is QMaxSAT 2017 based on 14.07
c This is Glucose 3.0
c This is MiniSat 2.2.0
c WARNING: for repeatability, setting FPU to use double precision
c card = mrwto, comp = 0, pmodel = 0, narr = 32, mct = 76, verb = 0
cr firstCPXsol 0 0 0
c top = 189219
c |  Number of variables:    22898                                            |
c |  Number of clauses:      1937239                                          |
c |  Weight of hard clauses: 189219                                           |
c |  Number of soft clauses: 331200                                           |
c |  Number of unit soft clauses: 0                                           |
c |  Maximum Cardinality (by unit): 10749120     (0           )               |
c last restart ## conflicts  :  0 7359 
o 1162 | cpuTime 3.56406 s
c Sum of weights = 335910
c A number of soft clauses remained = 10350
c MRWTO encoding for Pseudo-Boolean Constraints
c sizeMax=1162
c No.0 Divisor=11	generated by pow1
c No.1 Divisor=11	generated by pow1
c No.2 Divisor=11	generated by pow1
c p0= 11	p1= 11	p2= 11	
c number of digits = 4
c linkingVar[0].size = 11, linkingVar[1].size = 11, linkingVar[2].size = 10, linkingVar[3].size = 1, 
c Pseudo-Boolean Constraints: 199448 variables and 1677611 clauses
c Sum of weights = 335910
c A number of soft clauses remained = 10350
c MRWTO encoding for Pseudo-Boolean Constraints
c sizeMax=1162
c No.0 Divisor=11	generated by pow1
c No.1 Divisor=11	generated by pow1
c No.2 Divisor=11	generated by pow1
c p0= 11	p1= 11	p2= 11	
c number of digits = 4
c linkingVar[0].size = 11, linkingVar[1].size = 11, linkingVar[2].size = 10, linkingVar[3].size = 1, 
c Pseudo-Boolean Constraints: 199448 variables and 1677611 clauses
c Sum of weights = 335910
c A number of soft clauses remained = 10350
c MRWTO encoding for Pseudo-Boolean Constraints
c sizeMax=1162
c No.0 Divisor=11	generated by pow1
c No.1 Divisor=11	generated by pow1
c No.2 Divisor=11	generated by pow1
c p0= 11	p1= 11	p2= 11	
c number of digits = 4
c linkingVar[0].size = 11, linkingVar[1].size = 11, linkingVar[2].size = 10, linkingVar[3].size = 1, 
c Pseudo-Boolean Constraints: 199448 variables and 1677611 clauses
c Sum of weights = 335910
c A number of soft clauses remained = 10350
c MRWTO encoding for Pseudo-Boolean Constraints
c sizeMax=1162
c No.0 Divisor=11	generated by pow1
c No.1 Divisor=11	generated by pow1
c No.2 Divisor=11	generated by pow1
c p0= 11	p1= 11	p2= 11	
c number of digits = 4
c linkingVar[0].size = 11, linkingVar[1].size = 11, linkingVar[2].size = 10, linkingVar[3].size = 1, 
c Pseudo-Boolean Constraints: 199448 variables and 1677611 clauses
c Sum of weights = 335910
c A number of soft clauses remained = 10350
c MRWTO encoding for Pseudo-Boolean Constraints
c sizeMax=1162
c No.0 Divisor=11	generated by pow1
c No.1 Divisor=11	generated by pow1
c No.2 Divisor=11	generated by pow1
c p0= 11	p1= 11	p2= 11	
c number of digits = 4
c linkingVar[0].size = 11, linkingVar[1].size = 11, linkingVar[2].size = 10, linkingVar[3].size = 1, 
c Pseudo-Boolean Constraints: 199448 variables and 1677611 clauses
c Sum of weights = 335910
c A number of soft clauses remained = 10350
c MRWTO encoding for Pseudo-Boolean Constraints
c sizeMax=1162
c No.0 Divisor=11	generated by pow1
c No.1 Divisor=11	generated by pow1
c No.2 Divisor=11	generated by pow1
c p0= 11	p1= 11	p2= 11	
c number of digits = 4
c linkingVar[0].size = 11, linkingVar[1].size = 11, linkingVar[2].size = 10, linkingVar[3].size = 1, 
c Pseudo-Boolean Constraints: 199448 variables and 1677611 clauses
c Sum of weights = 335910
c A number of soft clauses remained = 10350
c MRWTO encoding for Pseudo-Boolean Constraints
c sizeMax=1162
c No.0 Divisor=11	generated by pow1
c No.1 Divisor=11	generated by pow1
c No.2 Divisor=11	generated by pow1
c p0= 11	p1= 11	p2= 11	
c number of digits = 4
c linkingVar[0].size = 11, linkingVar[1].size = 11, linkingVar[2].size = 10, linkingVar[3].size = 1, 
c Pseudo-Boolean Constraints: 199448 variables and 1677611 clauses
c Sum of weights = 335910
c A number of soft clauses remained = 10350
c MRWTO encoding for Pseudo-Boolean Constraints
c sizeMax=1162
c No.0 Divisor=11	generated by pow1
c No.1 Divisor=11	generated by pow1
c No.2 Divisor=11	generated by pow1
c p0= 11	p1= 11	p2= 11	
c number of digits = 4
c linkingVar[0].size = 11, linkingVar[1].size = 11, linkingVar[2].size = 10, linkingVar[3].size = 1, 
c Pseudo-Boolean Constraints: 199448 variables and 1677611 clauses
c Sum of weights = 335910
c A number of soft clauses remained = 10350
c MRWTO encoding for Pseudo-Boolean Constraints
c sizeMax=1162
c No.0 Divisor=11	generated by pow1
c No.1 Divisor=11	generated by pow1
c No.2 Divisor=11	generated by pow1
c p0= 11	p1= 11	p2= 11	
c number of digits = 4
c linkingVar[0].size = 11, linkingVar[1].size = 11, linkingVar[2].size = 10, linkingVar[3].size = 1, 
c Pseudo-Boolean Constraints: 199448 variables and 1677611 clauses
c Sum of weights = 335910
c A number of soft clauses remained = 10350
c MRWTO encoding for Pseudo-Boolean Constraints
c sizeMax=1162
c No.0 Divisor=11	generated by pow1
c No.1 Divisor=11	generated by pow1
c No.2 Divisor=11	generated by pow1
c p0= 11	p1= 11	p2= 11	
c number of digits = 4
c linkingVar[0].size = 11, linkingVar[1].size = 11, linkingVar[2].size = 10, linkingVar[3].size = 1, 
c Pseudo-Boolean Constraints: 199448 variables and 1677611 clauses
c Sum of weights = 335910
c A number of soft clauses remained = 10350
c MRWTO encoding for Pseudo-Boolean Constraints
c sizeMax=1162
c No.0 Divisor=11	generated by pow1
c No.1 Divisor=11	generated by pow1
c No.2 Divisor=11	generated by pow1
c p0= 11	p1= 11	p2= 11	
c number of digits = 4
c linkingVar[0].size = 11, linkingVar[1].size = 11, linkingVar[2].size = 10, linkingVar[3].size = 1, 
c Pseudo-Boolean Constraints: 199448 variables and 1677611 clauses
c Sum of weights = 335910
c A number of soft clauses remained = 10350
c MRWTO encoding for Pseudo-Boolean Constraints
c sizeMax=1162
c No.0 Divisor=11	generated by pow1
c No.1 Divisor=11	generated by pow1
c No.2 Divisor=11	generated by pow1
c p0= 11	p1= 11	p2= 11	
c number of digits = 4
c linkingVar[0].size = 11, linkingVar[1].size = 11, linkingVar[2].size = 10, linkingVar[3].size = 1, 
c Pseudo-Boolean Constraints: 199448 variables and 1677611 clauses
c Sum of weights = 335910
c A number of soft clauses remained = 10350
c MRWTO encoding for Pseudo-Boolean Constraints
c sizeMax=1162
c No.0 Divisor=11	generated by pow1
c No.1 Divisor=11	generated by pow1
c No.2 Divisor=11	generated by pow1
c p0= 11	p1= 11	p2= 11	
c number of digits = 4
c linkingVar[0].size = 11, linkingVar[1].size = 11, linkingVar[2].size = 10, linkingVar[3].size = 1, 
c Pseudo-Boolean Constraints: 199448 variables and 1677611 clauses
c Sum of weights = 335910
c A number of soft clauses remained = 10350
c MRWTO encoding for Pseudo-Boolean Constraints
c sizeMax=1162
c No.0 Divisor=11	generated by pow1
c No.1 Divisor=11	generated by pow1
c No.2 Divisor=11	generated by pow1
c p0= 11	p1= 11	p2= 11	
c number of digits = 4
c linkingVar[0].size = 11, linkingVar[1].size = 11, linkingVar[2].size = 10, linkingVar[3].size = 1, 
c Pseudo-Boolean Constraints: 199448 variables and 1677611 clauses
c Sum of weights = 335910
c A number of soft clauses remained = 10350
c MRWTO encoding for Pseudo-Boolean Constraints
c sizeMax=1162
c No.0 Divisor=11	generated by pow1
c No.1 Divisor=11	generated by pow1
c No.2 Divisor=11	generated by pow1
c p0= 11	p1= 11	p2= 11	
c number of digits = 4
c linkingVar[0].size = 11, linkingVar[1].size = 11, linkingVar[2].size = 10, linkingVar[3].size = 1, 
c Pseudo-Boolean Constraints: 199448 variables and 1677611 clauses
c Sum of weights = 335910
c A number of soft clauses remained = 10350
c MRWTO encoding for Pseudo-Boolean Constraints
c sizeMax=1162
c No.0 Divisor=11	generated by pow1
c No.1 Divisor=11	generated by pow1
c No.2 Divisor=11	generated by pow1
c p0= 11	p1= 11	p2= 11	
c number of digits = 4
c linkingVar[0].size = 11, linkingVar[1].size = 11, linkingVar[2].size = 10, linkingVar[3].size = 1, 
c Pseudo-Boolean Constraints: 199448 variables and 1677611 clauses
c Sum of weights = 335910
c A number of soft clauses remained = 10350
c MRWTO encoding for Pseudo-Boolean Constraints
c sizeMax=1162
c No.0 Divisor=11	generated by pow1
c No.1 Divisor=11	generated by pow1
c No.2 Divisor=11	generated by pow1
c p0= 11	p1= 11	p2= 11	
c number of digits = 4
c linkingVar[0].size = 11, linkingVar[1].size = 11, linkingVar[2].size = 10, linkingVar[3].size = 1, 
c Pseudo-Boolean Constraints: 199448 variables and 1677611 clauses
c Sum of weights = 335910
c A number of soft clauses remained = 10350
c MRWTO encoding for Pseudo-Boolean Constraints
c sizeMax=1162
c No.0 Divisor=11	generated by pow1
c No.1 Divisor=11	generated by pow1
c No.2 Divisor=11	generated by pow1
c p0= 11	p1= 11	p2= 11	
c number of digits = 4
c linkingVar[0].size = 11, linkingVar[1].size = 11, linkingVar[2].size = 10, linkingVar[3].size = 1, 
c Pseudo-Boolean Constraints: 199448 variables and 1677611 clauses
c Sum of weights = 335910
c A number of soft clauses remained = 10350
c MRWTO encoding for Pseudo-Boolean Constraints
c sizeMax=1162
c No.0 Divisor=11	generated by pow1
c No.1 Divisor=11	generated by pow1
c No.2 Divisor=11	generated by pow1
c p0= 11	p1= 11	p2= 11	
c number of digits = 4
c linkingVar[0].size = 11, linkingVar[1].size = 11, linkingVar[2].size = 10, linkingVar[3].size = 1, 
c Pseudo-Boolean Constraints: 199448 variables and 1677611 clauses
c Sum of weights = 335910
c A number of soft clauses remained = 10350
c MRWTO encoding for Pseudo-Boolean Constraints
c sizeMax=1162
c No.0 Divisor=11	generated by pow1
c No.1 Divisor=11	generated by pow1
c No.2 Divisor=11	generated by pow1
c p0= 11	p1= 11	p2= 11	
c number of digits = 4
c linkingVar[0].size = 11, linkingVar[1].size = 11, linkingVar[2].size = 10, linkingVar[3].size = 1, 
c Pseudo-Boolean Constraints: 199448 variables and 1677611 clauses
c Sum of weights = 335910
c A number of soft clauses remained = 10350
c MRWTO encoding for Pseudo-Boolean Constraints
c sizeMax=1162
c No.0 Divisor=11	generated by pow1
c No.1 Divisor=11	generated by pow1
c No.2 Divisor=11	generated by pow1
c p0= 11	p1= 11	p2= 11	
c number of digits = 4
c linkingVar[0].size = 11, linkingVar[1].size = 11, linkingVar[2].size = 10, linkingVar[3].size = 1, 
c Pseudo-Boolean Constraints: 199448 variables and 1677611 clauses
c Sum of weights = 335910
c A number of soft clauses remained = 10350
c MRWTO encoding for Pseudo-Boolean Constraints
c sizeMax=1162
c No.0 Divisor=11	generated by pow1
c No.1 Divisor=11	generated by pow1
c No.2 Divisor=11	generated by pow1
c p0= 11	p1= 11	p2= 11	
c number of digits = 4
c linkingVar[0].size = 11, linkingVar[1].size = 11, linkingVar[2].size = 10, linkingVar[3].size = 1, 
c Pseudo-Boolean Constraints: 199448 variables and 1677611 clauses
c Sum of weights = 335910
c A number of soft clauses remained = 10350
c MRWTO encoding for Pseudo-Boolean Constraints
c sizeMax=1162
c No.0 Divisor=11	generated by pow1
c No.1 Divisor=11	generated by pow1
c No.2 Divisor=11	generated by pow1
c p0= 11	p1= 11	p2= 11	
c number of digits = 4
c linkingVar[0].size = 11, linkingVar[1].size = 11, linkingVar[2].size = 10, linkingVar[3].size = 1, 
c Pseudo-Boolean Constraints: 199448 variables and 1677611 clauses
c Sum of weights = 335910
c A number of soft clauses remained = 10350
c MRWTO encoding for Pseudo-Boolean Constraints
c sizeMax=1162
c No.0 Divisor=11	generated by pow1
c No.1 Divisor=11	generated by pow1
c No.2 Divisor=11	generated by pow1
c p0= 11	p1= 11	p2= 11	
c number of digits = 4
c linkingVar[0].size = 11, linkingVar[1].size = 11, linkingVar[2].size = 10, linkingVar[3].size = 1, 
c Pseudo-Boolean Constraints: 199448 variables and 1677611 clauses
c Sum of weights = 335910
c A number of soft clauses remained = 10350
c MRWTO encoding for Pseudo-Boolean Constraints
c sizeMax=1162
c No.0 Divisor=11	generated by pow1
c No.1 Divisor=11	generated by pow1
c No.2 Divisor=11	generated by pow1
c p0= 11	p1= 11	p2= 11	
c number of digits = 4
c linkingVar[0].size = 11, linkingVar[1].size = 11, linkingVar[2].size = 10, linkingVar[3].size = 1, 
c Pseudo-Boolean Constraints: 199448 variables and 1677611 clauses
c Sum of weights = 335910
c A number of soft clauses remained = 10350
c MRWTO encoding for Pseudo-Boolean Constraints
c sizeMax=1162
c No.0 Divisor=11	generated by pow1
c No.1 Divisor=11	generated by pow1
c No.2 Divisor=11	generated by pow1
c p0= 11	p1= 11	p2= 11	
c number of digits = 4
c linkingVar[0].size = 11, linkingVar[1].size = 11, linkingVar[2].size = 10, linkingVar[3].size = 1, 
c Pseudo-Boolean Constraints: 199448 variables and 1677611 clauses
c Sum of weights = 335910
c A number of soft clauses remained = 10350
c MRWTO encoding for Pseudo-Boolean Constraints
c sizeMax=1162
c No.0 Divisor=11	generated by pow1
c No.1 Divisor=11	generated by pow1
c No.2 Divisor=11	generated by pow1
c p0= 11	p1= 11	p2= 11	
c number of digits = 4
c linkingVar[0].size = 11, linkingVar[1].size = 11, linkingVar[2].size = 10, linkingVar[3].size = 1, 
c Pseudo-Boolean Constraints: 199448 variables and 1677611 clauses
c Sum of weights = 335910
c A number of soft clauses remained = 10350
c MRWTO encoding for Pseudo-Boolean Constraints
c sizeMax=1162
c No.0 Divisor=11	generated by pow1
c No.1 Divisor=11	generated by pow1
c No.2 Divisor=11	generated by pow1
c p0= 11	p1= 11	p2= 11	
c number of digits = 4
c linkingVar[0].size = 11, linkingVar[1].size = 11, linkingVar[2].size = 10, linkingVar[3].size = 1, 
c Pseudo-Boolean Constraints: 199448 variables and 1677611 clauses
c Sum of weights = 335910
c A number of soft clauses remained = 10350
c MRWTO encoding for Pseudo-Boolean Constraints
c sizeMax=1162
c No.0 Divisor=11	generated by pow1
c No.1 Divisor=11	generated by pow1
c No.2 Divisor=11	generated by pow1
c p0= 11	p1= 11	p2= 11	
c number of digits = 4
c linkingVar[0].size = 11, linkingVar[1].size = 11, linkingVar[2].size = 10, linkingVar[3].size = 1, 
c Pseudo-Boolean Constraints: 199448 variables and 1677611 clauses
c Sum of weights = 335910
c A number of soft clauses remained = 10350
c MRWTO encoding for Pseudo-Boolean Constraints
c sizeMax=1162
c No.0 Divisor=11	generated by pow1
c No.1 Divisor=11	generated by pow1
c No.2 Divisor=11	generated by pow1
c p0= 11	p1= 11	p2= 11	
c number of digits = 4
c linkingVar[0].size = 11, linkingVar[1].size = 11, linkingVar[2].size = 10, linkingVar[3].size = 1, 
c Pseudo-Boolean Constraints: 199448 variables and 1677611 clauses
c Sum of weights = 335910
c A number of soft clauses remained = 10350
c MRWTO encoding for Pseudo-Boolean Constraints
c sizeMax=1162
c No.0 Divisor=11	generated by pow1
c No.1 Divisor=11	generated by pow1
c No.2 Divisor=11	generated by pow1
c p0= 11	p1= 11	p2= 11	
c number of digits = 4
c linkingVar[0].size = 11, linkingVar[1].size = 11, linkingVar[2].size = 10, linkingVar[3].size = 1, 
c Pseudo-Boolean Constraints: 199448 variables and 1677611 clauses
c Sum of weights = 335910
c A number of soft clauses remained = 10350
c MRWTO encoding for Pseudo-Boolean Constraints
c sizeMax=1162
c No.0 Divisor=11	generated by pow1
c No.1 Divisor=11	generated by pow1
c No.2 Divisor=11	generated by pow1
c p0= 11	p1= 11	p2= 11	
c number of digits = 4
c linkingVar[0].size = 11, linkingVar[1].size = 11, linkingVar[2].size = 10, linkingVar[3].size = 1, 
c Pseudo-Boolean Constraints: 199448 variables and 1677611 clauses
c last restart ## conflicts  :  259 167698 
o 473 | cpuTime 53.3268 s
c last restart ## conflicts  :  213 51137 
o 376 | cpuTime 78.0963 s
c last restart ## conflicts  :  910 96684 
o 251 | cpuTime 96.7884 s
c last restart ## conflicts  :  282 27605 
o 249 | cpuTime 132.233 s
c last restart ## conflicts  :  168 55140 
o 234 | cpuTime 302.409 s
c last restart ## conflicts  :  850 41951 
o 185 | cpuTime 349.851 s
c last restart ## conflicts  :  298 61063 
o 184 | cpuTime 485.818 s
c last restart ## conflicts  :  206 72143 
o 179 | cpuTime 1003.37 s
c last restart ## conflicts  :  455 74986 
o 162 | cpuTime 1088.05 s
c last restart ## conflicts  :  278 84687 
o 151 | cpuTime 3284.77 s
s UNKNOWN
c Search is stopped by a limit (maybe time-limit)
cr positiVarArr: [ | 69(1->38) | 146(1->8) | 300(1->55) | 406(1->54) | 516(1->57) | 639(1->73) | 714(1->41) | 854(1->74) | 957(1->70) | 1070(1->76) | 1143(1->42) | 1225(1->17) | 1337(1->22) | 1448(1->26) | 1542(1->13) | 1665(1->29) | 1762(1->19) | 1875(1->25) | 1975(1->18) | 2088(1->24) | 2234(1->63) | 2301(1->23) | 2441(1->56) | 2504(1->12) | 2629(1->30) | 2737(1->31) | 2823(1->10) | 2970(1->50) | 3079(1->52) | 3202(1->68) | 3303(1->62) | 3368(1->20) | 3454(2->1) | 3558(3->1) | 3712(4->43) | 3780(5->4) | 3916(6->33) | 3963(7->1) | 4113(8->16) | 4181(9->1) | 4290(10->1) | 4453(11->35) | 4553(12->28) | 4646(13->14) | 4742(14->3) | 4883(15->37) | 5002(16->49) | 5121(17->61) | 5151(18->1) | 5340(19->66) | 5386(20->5) | 5458(21->1) | 5643(22->48) | 5690(23->1) | 5803(24->1) | 5943(25->27) | 6082(26->59) | 6121(27->1) | 6273(28->36) | 6326(29->1) | 6427(30->1) | 6630(31->72) | 6716(32->51) | 6758(33->1) | 6886(34->7) | 7026(35->40) | 7162(36->69) | 7247(37->47) | 7318(38->11) | 7478(39->64) | 7519(40->1) | 7618(41->1) | 7727(42->1) | 7843(43->1) | 7930(44->1) | 8062(45->6) | 8163(46->1) | 8291(47->21) | 8409(48->32) | 8471(49->1) | 8580(50->1) | 8695(51->1) | 8851(52->46) | 8970(53->58) | 9072(54->53) | 9119(55->1) | 9211(56->1) | 9355(57->15) | 9456(58->9) | 9598(59->44) | 9636(60->1) | 9813(61->45) | 9855(62->1) | 9956(63->1) | 10074(64->1) | 10179(65->1) | 10368(66->65) | 10412(67->2) | 10592(68->75) | 10695(69->71) | 10702(70->1) | 10810(71->1) | 10984(72->39) | 11112(73->60) | 11154(74->1) | 11300(75->34) | 11440(76->67) | ]
cr the 1-th chain: [ 1->38->11->35->40->1 ] (#non-depot=4) {#cumul.=5}
cr the 2-th chain: [ 1->8->16->49->1 ] (#non-depot=3) {#cumul.=8}
cr the 3-th chain: [ 1->55->1 ] (#non-depot=1) {#cumul.=9}
cr the 4-th chain: [ 1->54->53->58->9->1 ] (#non-depot=4) {#cumul.=13}
cr the 5-th chain: [ 1->57->15->37->47->21->1 ] (#non-depot=5) {#cumul.=18}
cr the 6-th chain: [ 1->73->60->1 ] (#non-depot=2) {#cumul.=20}
cr the 7-th chain: [ 1->41->1 ] (#non-depot=1) {#cumul.=21}
cr the 8-th chain: [ 1->74->1 ] (#non-depot=1) {#cumul.=22}
cr the 9-th chain: [ 1->70->1 ] (#non-depot=1) {#cumul.=23}
cr the 10-th chain: [ 1->76->67->2->1 ] (#non-depot=3) {#cumul.=26}
cr the 11-th chain: [ 1->42->1 ] (#non-depot=1) {#cumul.=27}
cr the 12-th chain: [ 1->17->61->45->6->33->1 ] (#non-depot=5) {#cumul.=32}
cr the 13-th chain: [ 1->22->48->32->51->1 ] (#non-depot=4) {#cumul.=36}
cr the 14-th chain: [ 1->26->59->44->1 ] (#non-depot=3) {#cumul.=39}
cr the 15-th chain: [ 1->13->14->3->1 ] (#non-depot=3) {#cumul.=42}
cr the 16-th chain: [ 1->29->1 ] (#non-depot=1) {#cumul.=43}
cr the 17-th chain: [ 1->19->66->65->1 ] (#non-depot=3) {#cumul.=46}
cr the 18-th chain: [ 1->25->27->1 ] (#non-depot=2) {#cumul.=48}
cr the 19-th chain: [ 1->18->1 ] (#non-depot=1) {#cumul.=49}
cr the 20-th chain: [ 1->24->1 ] (#non-depot=1) {#cumul.=50}
cr the 21-th chain: [ 1->63->1 ] (#non-depot=1) {#cumul.=51}
cr the 22-th chain: [ 1->23->1 ] (#non-depot=1) {#cumul.=52}
cr the 23-th chain: [ 1->56->1 ] (#non-depot=1) {#cumul.=53}
cr the 24-th chain: [ 1->12->28->36->69->71->1 ] (#non-depot=5) {#cumul.=58}
cr the 25-th chain: [ 1->30->1 ] (#non-depot=1) {#cumul.=59}
cr the 26-th chain: [ 1->31->72->39->64->1 ] (#non-depot=4) {#cumul.=63}
cr the 27-th chain: [ 1->10->1 ] (#non-depot=1) {#cumul.=64}
cr the 28-th chain: [ 1->50->1 ] (#non-depot=1) {#cumul.=65}
cr the 29-th chain: [ 1->52->46->1 ] (#non-depot=2) {#cumul.=67}
cr the 30-th chain: [ 1->68->75->34->7->1 ] (#non-depot=4) {#cumul.=71}
cr the 31-th chain: [ 1->62->1 ] (#non-depot=1) {#cumul.=72}
cr the 32-th chain: [ 1->20->5->4->43->1 ] (#non-depot=4) {#cumul.=76}
c Latest Answer = 0 by 11 loops
c restarts              : 11267
c conflicts             : 2007023        (558 /sec)
c decisions             : 162588425      (0.00 % random) (45209 /sec)
c propagations          : 33357050659    (9275252 /sec)
c conflict literals     : 462034053      (20.39 % deleted)
c Memory used           : 6320.00 MB
c CPU time              : 3596.35 s
